%chk=#basename#.chk
%mem=1GB
#P MP2/CC-PVDZ FREQ  NOSYMMETRY MAXDISK=240GB

Frequency at MP2/cc-pVDZ

0  1  
#coordinate#

