%NprocShared=16
%chk=h2o_6-mp2dz.chk
%mem=3GB
#p MP2/cc-pVDZ scfcyc=50 opt freq

(H2O)6  

0 1
O        0.926883   -1.629854   -1.013707
H        0.339362   -1.037852   -1.529790
H        0.342175   -1.928367   -0.274839
O       -0.838765    0.349867   -1.984163
H       -1.363717    0.338866   -2.797353
H       -1.490418    0.307097   -1.243785
O       -1.928603    0.522462    0.490568
H       -1.192785    1.211530    0.518019
H       -2.714308    0.954612    0.855329
O       -0.421590   -1.693876    1.389462
H        0.356745   -1.164653    1.647462
H       -1.089851   -1.001885    1.201651
O        0.160484    2.061848    0.093947
H        0.881901    1.464021    0.413315
H        0.088583    1.826295   -0.850373
O        1.820541    0.032711    0.823520
H        2.776835    0.016285    0.972105
H        1.653776   -0.580786    0.042358

