%chk=minfo.files/mkqff15-0.chk
%mem=1GB
#P MP2/CC-PVDZ FREQ  NOSYMMETRY MAXDISK=240GB

Frequency at MP2/cc-pVDZ

0   1  
O        1.418049    -0.971491    -1.244427  
H        0.465226    -1.075117    -1.428301  
H        1.473478    -1.251850    -0.306378  
O       -1.424241    -0.915738    -1.332245  
H       -1.992315    -1.547682    -1.786572  
H       -1.551163    -0.978689    -0.362212  
O       -1.461511    -0.438577     1.362431  
H       -1.436595     0.477988     0.971325  
H       -2.151323    -0.395015     2.037200  
O        1.341576    -0.892545     1.541961  
H        1.581105     0.032018     1.365421  
H        0.377029    -0.820208     1.664835  
O       -1.259439     1.741772    -0.134895  
H       -0.281783     1.833311    -0.179657  
H       -1.444473     1.192290    -0.914164  
O        1.466586     1.468224    -0.179863  
H        2.156770     2.034606    -0.547765  
H        1.520519     0.634533    -0.721952  

