%chk=minfo.files/mkqff34_33-3.chk
%mem=1GB
#P MP2/CC-PVDZ FREQ  NOSYMMETRY MAXDISK=240GB

Frequency at MP2/cc-pVDZ

0   1  
O        1.418049    -0.971491    -1.244427  
H        0.465226    -1.075117    -1.428301  
H        1.473478    -1.251850    -0.306378  
O       -1.421279    -0.912820    -1.333821  
H       -2.006435    -1.559630    -1.748031  
H       -1.586393    -1.016640    -0.373230  
O       -1.461511    -0.438577     1.362431  
H       -1.436595     0.477988     0.971325  
H       -2.151323    -0.395015     2.037200  
O        1.346330    -0.897331     1.541867  
H        1.543806     0.062465     1.367161  
H        0.337181    -0.770859     1.664024  
O       -1.259439     1.741772    -0.134895  
H       -0.281783     1.833311    -0.179657  
H       -1.444473     1.192290    -0.914164  
O        1.466586     1.468224    -0.179863  
H        2.156770     2.034606    -0.547765  
H        1.520519     0.634533    -0.721952  

