%chk=#basename#.chk
%NprocShared=8
%mem=1GB
#P CCSD(T)/CC-PVTZ SCF=TIGHT  NOSYMMETRY MAXDISK=240GB

Energy at CCSD(T)/cc-pVTZ

0  1  
#coordinate#

