$MOLECULE
0 1
C        0.000000     0.000000    -0.534156  
O       -0.000000    -0.000000     0.678750  
H        0.000000     0.935861    -1.112535  
H       -0.000000    -0.935861    -1.112535  
$END

$COMMENT
optimize the geometry
$END

$REM
EXCHANGE          B3LYP
DFT_D             EMPIRICAL_GRIMME
BASIS             AUG-CC-PVTZ
JOBTYPE           SP
GUI          2
MEM_TOTAL    2000
$END

