$MOLECULE
-1 1
P       -0.000019     0.000397     0.148187  
O        0.997489     0.813810    -0.915402  
H        1.775683     0.259157    -1.024898  
O       -0.997232    -0.818660    -0.911496  
H       -1.776845    -0.266116    -1.021518  
O        0.848260    -1.026102     0.837306  
O       -0.848407     1.030622     0.831575  
$END

$COMMENT
optimize the geometry
$END

$REM
EXCHANGE          B3LYP
DFT_D             EMPIRICAL_GRIMME
BASIS             AUG-CC-PVTZ
JOBTYPE           SP
GUI          2
MEM_TOTAL    2000
$END

